* ENCODING=ISO-8859-1
NAME          CPLEX
ROWS
 N  obj1    
 G  c1      
 G  c2      
 G  c3      
 G  c4      
 G  c5      
 G  c6      
 G  c7      
 G  c8      
 G  c9      
 G  c10     
 G  c11     
 G  c12     
 G  c13     
 G  c14     
 G  c15     
 G  c16     
 G  c17     
 G  c18     
 G  c19     
 G  c20     
 G  c21     
 G  c22     
 G  c23     
 G  c24     
 G  c25     
 G  c26     
 G  c27     
 G  c28     
 G  c29     
 G  c30     
 G  c31     
 G  c32     
 G  c33     
 G  c34     
 G  c35     
 G  c36     
 G  c37     
 G  c38     
 G  c39     
 G  c40     
 G  c41     
 G  c42     
 G  c43     
 G  c44     
 G  c45     
 G  c46     
 G  c47     
 G  c48     
 G  c49     
 G  c50     
 G  c51     
 G  c52     
 G  c53     
 G  c54     
 G  c55     
 G  c56     
 G  c57     
 G  c58     
 G  c59     
 G  c60     
COLUMNS
    MARK0000  'MARKER'                 'INTORG'
    x1        obj1                            1
    x1        c4                            985
    x1        c6                            133
    x1        c8                            889
    x1        c15                           563
    x1        c26                           194
    x2        obj1                            1
    x2        c4                            297
    x2        c5                            177
    x2        c10                           520
    x2        c13                           506
    x2        c17                           328
    x2        c26                           847
    x2        c37                           568
    x2        c46                           654
    x2        c53                           942
    x3        obj1                            1
    x3        c17                           638
    x3        c21                           727
    x3        c35                           693
    x3        c40                           961
    x3        c51                           420
    x4        obj1                            1
    x4        c19                           491
    x4        c23                           562
    x4        c49                           779
    x5        obj1                            1
    x5        c30                           600
    x5        c38                           155
    x5        c48                           860
    x6        obj1                            1
    x6        c9                            606
    x6        c18                           866
    x6        c27                           414
    x6        c37                           279
    x6        c44                           818
    x6        c47                           213
    x6        c48                           959
    x6        c52                           162
    x7        obj1                            1
    x7        c9                            825
    x7        c22                           690
    x7        c23                           186
    x7        c42                           615
    x7        c46                           607
    x7        c60                           464
    x8        obj1                            1
    x8        c12                           177
    x8        c35                           843
    x9        obj1                            1
    x9        c2                            855
    x9        c7                            722
    x9        c13                           216
    x9        c17                           483
    x9        c20                           962
    x9        c33                           477
    x9        c43                           137
    x9        c44                           858
    x9        c50                           123
    x9        c60                           927
    x10       obj1                            1
    x10       c8                            458
    x10       c16                           914
    x10       c18                           633
    x10       c24                           443
    x10       c26                           713
    x10       c30                           408
    x10       c39                           846
    x10       c40                           501
    x10       c58                           966
    x11       obj1                            1
    x11       c1                            122
    x11       c16                           380
    x11       c18                           987
    x11       c28                           118
    x11       c42                           835
    x11       c50                           637
    x11       c54                           547
    x12       obj1                            1
    x12       c16                           159
    x12       c26                           993
    x12       c37                           554
    x12       c46                           519
    x12       c47                           491
    x12       c48                           869
    x12       c49                           222
    x12       c54                           920
    x12       c59                           506
    x13       obj1                            1
    x13       c8                            614
    x13       c20                           908
    x13       c34                           773
    x13       c35                           838
    x13       c40                           531
    x13       c42                           383
    x13       c48                           463
    x14       obj1                            1
    x14       c4                            518
    x14       c17                           973
    x14       c18                           599
    x14       c25                           256
    x14       c32                           192
    x14       c43                           526
    x15       obj1                            1
    x15       c2                            135
    x15       c18                           125
    x15       c27                           124
    x15       c29                           418
    x15       c37                           605
    x15       c44                           733
    x15       c47                           680
    x15       c55                           639
    x15       c58                           563
    x16       obj1                            1
    x16       c6                            873
    x16       c11                           912
    x16       c12                           165
    x16       c15                           836
    x16       c24                           769
    x16       c29                           948
    x16       c35                           260
    x16       c46                           842
    x16       c55                           661
    x17       obj1                            1
    x17       c2                            671
    x17       c3                            625
    x17       c6                            568
    x17       c16                           483
    x17       c28                           293
    x17       c29                           517
    x17       c32                           915
    x17       c41                           558
    x17       c42                           689
    x17       c44                           942
    x17       c54                           399
    x18       obj1                            1
    x18       c10                           879
    x18       c14                           564
    x18       c24                           303
    x18       c27                           444
    x18       c30                           372
    x18       c31                           821
    x18       c32                           817
    x18       c40                           518
    x18       c41                           101
    x18       c43                           361
    x18       c52                           904
    x18       c56                           531
    x19       obj1                            1
    x19       c29                           812
    x20       obj1                            1
    x20       c1                            976
    x20       c12                           286
    x20       c29                           955
    x20       c36                           645
    x20       c52                           864
    x21       obj1                            1
    x21       c15                           373
    x21       c22                           238
    x21       c27                           192
    x21       c42                           200
    x21       c45                           489
    x22       obj1                            1
    x22       c31                           889
    x22       c42                           664
    x22       c50                           231
    x22       c53                           421
    x22       c54                           365
    x22       c57                           459
    x23       obj1                            1
    x23       c4                            391
    x23       c7                            730
    x23       c9                            901
    x23       c15                           122
    x23       c24                           787
    x23       c47                           378
    x23       c58                           412
    x24       obj1                            1
    x24       c2                            351
    x24       c6                            396
    x24       c9                            774
    x24       c17                           635
    x24       c23                           194
    x24       c39                           636
    x24       c50                           433
    x24       c51                           166
    x25       obj1                            1
    x25       c22                           573
    x25       c23                           902
    x25       c28                           881
    x25       c34                           840
    x25       c35                           800
    x25       c41                           894
    x25       c51                           638
    x25       c58                           558
    x26       obj1                            1
    x26       c7                            519
    x26       c13                           185
    x26       c44                           558
    x26       c46                           288
    x26       c55                           526
    x26       c58                           351
    x27       obj1                            1
    x27       c2                            854
    x27       c22                           196
    x27       c44                           234
    x27       c50                           416
    x27       c52                           709
    x27       c57                           639
    x27       c58                           981
    x28       obj1                            1
    x28       c6                            693
    x28       c14                           505
    x28       c19                           113
    x28       c27                           138
    x28       c33                           684
    x28       c34                           892
    x28       c49                           899
    x28       c54                           203
    x29       obj1                            1
    x29       c5                            232
    x29       c18                           546
    x29       c20                           160
    x29       c58                           818
    x30       obj1                            1
    x30       c7                            799
    x30       c22                           158
    x30       c32                           575
    x30       c39                           976
    x31       obj1                            1
    x31       c3                            924
    x31       c16                           859
    x31       c22                           717
    x31       c29                           772
    x31       c31                           404
    x31       c37                           433
    x31       c43                           530
    x31       c47                           844
    x31       c55                           195
    x31       c57                           452
    x32       obj1                            1
    x32       c14                           805
    x32       c15                           407
    x32       c44                           411
    x32       c49                           769
    x33       obj1                            1
    x33       c18                           988
    x33       c21                           872
    x33       c22                           721
    x33       c33                           791
    x33       c45                           464
    x33       c49                           587
    x33       c58                           338
    x34       obj1                            1
    x34       c4                            526
    x34       c8                            474
    x34       c50                           648
    x35       obj1                            1
    x35       c29                           163
    x35       c51                           566
    x35       c55                           380
    x36       obj1                            1
    x36       c3                            212
    x36       c20                           983
    x36       c22                           634
    x36       c48                           269
    x36       c51                           770
    x37       obj1                            1
    x37       c6                            536
    x37       c7                            462
    x37       c9                            612
    x37       c21                           534
    x37       c25                           646
    x37       c36                           284
    x37       c43                           577
    x37       c46                           171
    x37       c56                           674
    x38       obj1                            1
    x38       c1                            157
    x38       c7                            555
    x38       c10                           743
    x38       c11                           507
    x38       c12                           682
    x38       c54                           160
    x39       obj1                            1
    x39       c7                            944
    x39       c24                           586
    x39       c38                           430
    x39       c43                           209
    x40       obj1                            1
    x40       c8                            377
    x40       c47                           156
    x40       c57                           414
    x41       obj1                            1
    x41       c20                           875
    x41       c21                           864
    x41       c27                           912
    x41       c32                           534
    x41       c40                           715
    x41       c41                           235
    x41       c54                           161
    x42       obj1                            1
    x42       c2                            775
    x42       c15                           111
    x42       c23                           164
    x42       c60                           234
    x43       obj1                            1
    x43       c2                            968
    x43       c11                           212
    x43       c14                           299
    x43       c29                           198
    x43       c32                           461
    x43       c43                           925
    x43       c47                           888
    x43       c55                           322
    x44       obj1                            1
    x44       c2                            827
    x44       c37                           434
    x44       c43                           196
    x44       c56                           252
    x45       obj1                            1
    x45       c12                           189
    x45       c18                           292
    x45       c36                           886
    x45       c47                           761
    x45       c58                           533
    x46       obj1                            1
    x46       c1                            336
    x46       c4                            481
    x46       c14                           125
    x46       c15                           665
    x46       c25                           779
    x46       c40                           963
    x46       c47                           563
    x46       c50                           904
    x47       obj1                            1
    x47       c14                           416
    x47       c20                           121
    x47       c32                           767
    x47       c52                           823
    x48       obj1                            1
    x48       c8                            872
    x48       c14                           182
    x48       c21                           530
    x48       c23                           726
    x48       c25                           781
    x48       c55                           708
    x49       obj1                            1
    x49       c1                            171
    x49       c12                           456
    x49       c26                           252
    x49       c42                           985
    x49       c54                           821
    x50       obj1                            1
    x50       c14                           286
    x50       c21                           649
    x50       c26                           676
    x50       c41                           122
    x50       c42                           806
    x50       c44                           779
    x51       obj1                            1
    x51       c9                            490
    x51       c19                           371
    x51       c35                           969
    x51       c43                           620
    x51       c55                           831
    x52       obj1                            1
    x52       c8                            402
    x52       c41                           860
    x52       c50                           599
    x53       obj1                            1
    x53       c8                            217
    x53       c13                           330
    x53       c35                           813
    x53       c38                           214
    x53       c49                           272
    x54       obj1                            1
    x54       c16                           817
    x54       c17                           883
    x54       c21                           686
    x54       c38                           693
    x54       c48                           334
    x55       obj1                            1
    x55       c6                            913
    x55       c16                           841
    x55       c33                           180
    x55       c57                          1000
    x56       obj1                            1
    x56       c3                            997
    x56       c6                            698
    x56       c9                            386
    x56       c23                           834
    x56       c27                           225
    x56       c59                           657
    x57       obj1                            1
    x57       c11                           848
    x57       c41                           309
    x57       c53                           360
    x57       c59                           739
    x58       obj1                            1
    x58       c5                            505
    x58       c16                           117
    x58       c36                           245
    x58       c54                           317
    x59       obj1                            1
    x59       c4                            991
    x59       c23                           668
    x59       c27                           650
    x59       c49                           340
    x59       c57                           622
    x60       obj1                            1
    x60       c11                           570
    x60       c15                           699
    x60       c18                           618
    x60       c20                           793
    x60       c22                           788
    x60       c24                           285
    x60       c30                           799
    x60       c44                           822
    x60       c45                           394
    x60       c50                           908
    x60       c55                           144
    MARK0001  'MARKER'                 'INTEND'
RHS
    rhs       c1                            881
    rhs       c2                           2718
    rhs       c3                           1379
    rhs       c4                           2095
    rhs       c5                            457
    rhs       c6                           2405
    rhs       c7                           2366
    rhs       c8                           2152
    rhs       c9                           2297
    rhs       c10                          1071
    rhs       c11                          1525
    rhs       c12                           978
    rhs       c13                           619
    rhs       c14                          1591
    rhs       c15                          1888
    rhs       c16                          2285
    rhs       c17                          1970
    rhs       c18                          2827
    rhs       c19                           488
    rhs       c20                          2401
    rhs       c21                          2431
    rhs       c22                          2358
    rhs       c23                          2118
    rhs       c24                          1587
    rhs       c25                          1231
    rhs       c26                          1838
    rhs       c27                          1550
    rhs       c28                           646
    rhs       c29                          2392
    rhs       c30                          1090
    rhs       c31                          1057
    rhs       c32                          2131
    rhs       c33                          1066
    rhs       c34                          1253
    rhs       c35                          2608
    rhs       c36                          1030
    rhs       c37                          1437
    rhs       c38                           746
    rhs       c39                          1229
    rhs       c40                          2095
    rhs       c41                          1540
    rhs       c42                          2589
    rhs       c43                          2041
    rhs       c44                          3078
    rhs       c45                           674
    rhs       c46                          1541
    rhs       c47                          2487
    rhs       c48                          1877
    rhs       c49                          1934
    rhs       c50                          2450
    rhs       c51                          1280
    rhs       c52                          1731
    rhs       c53                           862
    rhs       c54                          1947
    rhs       c55                          2203
    rhs       c56                           729
    rhs       c57                          1793
    rhs       c58                          2760
    rhs       c59                           951
    rhs       c60                           813
BOUNDS
 LI bnd       x1        0
 LI bnd       x2        0
 LI bnd       x3        0
 LI bnd       x4        0
 LI bnd       x5        0
 LI bnd       x6        0
 LI bnd       x7        0
 LI bnd       x8        0
 LI bnd       x9        0
 LI bnd       x10       0
 LI bnd       x11       0
 LI bnd       x12       0
 LI bnd       x13       0
 LI bnd       x14       0
 LI bnd       x15       0
 LI bnd       x16       0
 LI bnd       x17       0
 LI bnd       x18       0
 LI bnd       x19       0
 LI bnd       x20       0
 LI bnd       x21       0
 LI bnd       x22       0
 LI bnd       x23       0
 LI bnd       x24       0
 LI bnd       x25       0
 LI bnd       x26       0
 LI bnd       x27       0
 LI bnd       x28       0
 LI bnd       x29       0
 LI bnd       x30       0
 LI bnd       x31       0
 LI bnd       x32       0
 LI bnd       x33       0
 LI bnd       x34       0
 LI bnd       x35       0
 LI bnd       x36       0
 LI bnd       x37       0
 LI bnd       x38       0
 LI bnd       x39       0
 LI bnd       x40       0
 LI bnd       x41       0
 LI bnd       x42       0
 LI bnd       x43       0
 LI bnd       x44       0
 LI bnd       x45       0
 LI bnd       x46       0
 LI bnd       x47       0
 LI bnd       x48       0
 LI bnd       x49       0
 LI bnd       x50       0
 LI bnd       x51       0
 LI bnd       x52       0
 LI bnd       x53       0
 LI bnd       x54       0
 LI bnd       x55       0
 LI bnd       x56       0
 LI bnd       x57       0
 LI bnd       x58       0
 LI bnd       x59       0
 LI bnd       x60       0
ENDATA
